p cnf 10 40
5 -9 -1 0
2 -10 -8 0
-5 -6 4 0
-9 1 4 0
-8 6 -7 0
-3 -9 4 0
-8 -10 7 0
2 -7 -1 0
-7 9 5 0
10 -6 -3 0
-3 10 -1 0
9 -3 -8 0
-5 -3 -9 0
-3 4 -6 0
8 -3 -9 0
10 2 -9 0
-1 -7 5 0
-8 -2 4 0
-9 6 -3 0
-7 -9 10 0
2 -8 -9 0
-4 -7 -10 0
2 -3 -8 0
-9 10 -5 0
6 -1 -2 0
4 -5 -3 0
5 8 -9 0
-4 -1 -9 0
-3 6 -4 0
-10 -9 -3 0
2 -5 -8 0
-3 -1 -6 0
-8 -4 -7 0
-3 4 -7 0
-8 -10 -1 0
-9 -10 -1 0
2 6 -8 0
-5 2 -3 0
-6 -5 -3 0
5 6 -10 0
%
0